JulietBench/Juliet_Based_Patch_Bench/linux/CWE-189-Numeric-Errors/CVE_2012_0038_093019cf1b18dd31b2c3b77acce4e000e2cbc9ce/solverxfs_acl_from_disk_Snippet_patch2.smt2
; benchmark generated from python API
(set-info :status unknown)
(declare-fun R () (_ BitVec 32))
(declare-fun rdi () (_ BitVec 64))
(assert
 (let (($x54 (and (distinct (_ bv0 32) R) true)))
 (let (($x49 (= (_ bv0 32) R)))
 (let ((?x6 ((_ extract 31 0) rdi)))
 (let (($x11 (bvule ?x6 (_ bv25 32))))
 (let (($x50 (and $x11 $x49)))
 (let (($x47 (= (_ bv4294967161 32) R)))
 (let (($x43 (bvugt ?x6 (_ bv25 32))))
 (let (($x48 (and $x43 $x47)))
 (let (($x51 (or $x48 $x50)))
 (let (($x53 (not $x51)))
 (let (($x55 (and $x53 $x54)))
 (let (($x52 (and $x51 $x49)))
 (let (($x56 (or $x52 $x55)))
 (not $x56)))))))))))))))
(check-sat)
